(set-logic SLIA)
(constraint (= (f "Adf_ROCLeader_BAN_728x90_CPM_STD _BRD _NRT_DCK") "Adf_ROCLeader_BAN_728x90_CPM_STD _Branding _NRT_DCK"))
(constraint (= (f "MMC_ContextualLarRec_BAN_336x280_CPM_STD _LDS _RTG_DCK") "MMC_ContextualLarRec_BAN_336x280_CPM_STD _Leads _RTG_DCK"))
(constraint (= (f "Adf_ROC_DLBD_728x90_CPM_STD_DRS_NRT_NOR_DCK") "Adf_ROC_DLBD_728x90_CPM_STD_Direct Response_NRT_NOR_DCK"))
(check-synth)
(synth-fun f ((_arg_0 String)) String ((Start String (ntString)) (ntString String ((Str A) (str.++ ntString A))) (A String ((Str ConstString) (SubStr X P P))) (P Int ((Int ntInt) (Pos X Pattern ntInt Direction))) (Pattern String ((Str ConstString) "ProperCase" "CAPS" "lowercase" "Digits" "Alphabets" "Alphanumeric" "WhiteSpace" "ProperCaseWSpaces" "CAPSWSpaces" "lowercaseSpaces" "AlphabetsWSpaces")) (X String (_arg_0)) (ConstString String (_arg_0 "" " " "BRD" "DRS" "LDS" "Branding" "Direct Response" "Leads")) (Direction Int (0 1)) (ntInt Int (-5 -4 -3 -2 -1 0 1 2 3 4 5))))
